language Essence 1.3

letting class be
        function(1 --> 3, 2 --> 5, 3 --> 2, 4 --> 7, 5 --> 9, 6 --> 6, 7 --> 8, 8 --> 10, 9 --> 6, 10 --> 4, 11 --> 9,
                 12 --> 2, 13 --> 10, 14 --> 3, 15 --> 6, 16 --> 1, 17 --> 3, 18 --> 5, 19 --> 6, 20 --> 4, 21 --> 6,
                 22 --> 9, 23 --> 5, 24 --> 2, 25 --> 2, 26 --> 1, 27 --> 2)
letting deck_length be 86
letting deck_width be 32
letting length be
        function(1 --> 2, 2 --> 1, 3 --> 1, 4 --> 2, 5 --> 1, 6 --> 3, 7 --> 1, 8 --> 2, 9 --> 2, 10 --> 1, 11 --> 3,
                 12 --> 1, 13 --> 1, 14 --> 1, 15 --> 1, 16 --> 1, 17 --> 2, 18 --> 1, 19 --> 1, 20 --> 1, 21 --> 1,
                 22 --> 1, 23 --> 1, 24 --> 1, 25 --> 1, 26 --> 26, 27 --> 1)
letting n_classes be 10
letting n_containers be 27
letting separation be function()
letting width be
        function(1 --> 19, 2 --> 12, 3 --> 27, 4 --> 29, 5 --> 6, 6 --> 31, 7 --> 1, 8 --> 29, 9 --> 1, 10 --> 1,
                 11 --> 25, 12 --> 21, 13 --> 26, 14 --> 31, 15 --> 1, 16 --> 14, 17 --> 26, 18 --> 9, 19 --> 3,
                 20 --> 9, 21 --> 24, 22 --> 14, 23 --> 23, 24 --> 23, 25 --> 6, 26 --> 31, 27 --> 25)
